VER
4

OBJSENSE
MIN


QKDCONES
1 8
4 1 4 4 0
0 0 0 1.0
0 1 1 1.0
0 2 2 1.0
0 3 3 1.0
4 2 4 4 0
0 0 0 1.0
0 1 1 1.0
1 2 2 1.0
1 3 3 1.0

VAR
17 1
@0:HVECQKD 17

CON
4 1
L= 4

OBJACOORD
1
0 1.0

ACOORD
18
0 1 1.0
0 16 1.0
1 1 0.4999999999999998
1 4 0.4999999999999998
1 7 0.7071067811865472
1 9 0.4999999999999998
1 10 0.7071067811865472
1 16 0.4999999999999998
2 1 0.4999999999999998
2 4 0.4999999999999998
2 7 -0.7071067811865472
2 9 0.4999999999999998
2 10 0.7071067811865472
2 16 0.4999999999999998
3 1 1.0
3 4 1.0
3 9 1.0
3 16 1.0

BCOORD
4
0 0.975
1 0.975
2 0.975
3 1.0
